(set-logic QF_LIA)
(declare-fun x0 () Int)
(declare-fun x1 () Int)
(declare-fun x2 () Int)
(declare-fun x3 () Int)
(declare-fun x4 () Int)
(declare-fun x5 () Int)
(declare-fun x6 () Int)
(declare-fun x7 () Int)
(declare-fun x8 () Int)
(declare-fun x9 () Int)
(declare-fun A0 () Bool)
(declare-fun A1 () Bool)
(declare-fun A2 () Bool)
(declare-fun A5 () Bool)
(declare-fun A6 () Bool)
(declare-fun A7 () Bool)
(declare-fun A8 () Bool)
(declare-fun A9 () Bool)
(assert (let ((.def_0 (* (- 1) x6))) (let ((.def_1 (* 1 x7))) (let ((.def_2 (+ .def_1 .def_0))) (let ((.def_3 (< .def_2 1))) (let ((.def_4 (* (- 1) x5))) (let ((.def_5 (* (- 1) x0))) (let ((.def_6 (+ .def_5 .def_4))) (let ((.def_7 (< .def_6 (- 1)))) (let ((.def_8 (not .def_7))) (let ((.def_9 (or .def_8 .def_3))) (let ((.def_10 (* 1 x0))) (let ((.def_11 (* (- 1) x4))) (let ((.def_12 (+ .def_11 .def_10))) (let ((.def_13 (< .def_12 1))) (let ((.def_14 (not .def_13))) (let ((.def_15 (not A7))) (let ((.def_16 (or .def_15 .def_14))) (let ((.def_17 (or .def_16 .def_9))) (let ((.def_18 (* (- 1) x2))) (let ((.def_19 (* 1 x8))) (let ((.def_20 (+ .def_19 .def_18))) (let ((.def_21 (< .def_20 1))) (let ((.def_22 (* 1 x9))) (let ((.def_23 (< .def_22 1))) (let ((.def_24 (not .def_23))) (let ((.def_25 (and .def_24 .def_21))) (let ((.def_26 (not .def_25))) (let ((.def_27 (< .def_4 (- 1)))) (let ((.def_28 (not .def_27))) (let ((.def_29 (and A0 .def_28))) (let ((.def_30 (or .def_29 .def_26))) (let ((.def_31 (or .def_30 .def_17))) (let ((.def_32 (* 1 x1))) (let ((.def_33 (< .def_32 1))) (let ((.def_34 (not .def_33))) (let ((.def_35 (and A8 .def_34))) (let ((.def_36 (not .def_35))) (let ((.def_37 (* (- 1) x8))) (let ((.def_38 (+ .def_5 .def_37))) (let ((.def_39 (< .def_38 (- 1)))) (let ((.def_40 (not A8))) (let ((.def_41 (or .def_40 .def_39))) (let ((.def_42 (and .def_41 .def_36))) (let ((.def_43 (* 1 x2))) (let ((.def_44 (* 1 x5))) (let ((.def_45 (+ .def_44 .def_43))) (let ((.def_46 (< .def_45 (- 1)))) (let ((.def_47 (and .def_46 A1))) (let ((.def_48 (< .def_1 1))) (let ((.def_49 (and A6 .def_48))) (let ((.def_50 (not .def_49))) (let ((.def_51 (or .def_50 .def_47))) (let ((.def_52 (and .def_51 .def_42))) (let ((.def_53 (and .def_52 .def_31))) (let ((.def_54 (not .def_53))) (let ((.def_55 (* 1 x4))) (let ((.def_56 (< .def_55 1))) (let ((.def_57 (and .def_56 A9))) (let ((.def_58 (and A7 A5))) (let ((.def_59 (and .def_58 .def_57))) (let ((.def_60 (* (- 1) x3))) (let ((.def_61 (< .def_60 (- 1)))) (let ((.def_62 (not .def_61))) (let ((.def_63 (< .def_37 1))) (let ((.def_64 (and .def_63 .def_62))) (let ((.def_65 (not .def_64))) (let ((.def_66 (and A1 .def_40))) (let ((.def_67 (and .def_66 .def_65))) (let ((.def_68 (and .def_67 .def_59))) (let ((.def_69 (+ .def_55 .def_44))) (let ((.def_70 (< .def_69 (- 1)))) (let ((.def_71 (not .def_70))) (let ((.def_72 (and A6 .def_71))) (let ((.def_73 (* (- 1) x9))) (let ((.def_74 (< .def_73 (- 1)))) (let ((.def_75 (and A2 .def_74))) (let ((.def_76 (not .def_75))) (let ((.def_77 (and .def_76 .def_72))) (let ((.def_78 (* 1 x6))) (let ((.def_79 (+ .def_18 .def_78))) (let ((.def_80 (< .def_79 (- 1)))) (let ((.def_81 (not .def_80))) (let ((.def_82 (and .def_81 .def_23))) (let ((.def_83 (or A0 A9))) (let ((.def_84 (not .def_83))) (let ((.def_85 (and .def_84 .def_82))) (let ((.def_86 (= .def_85 .def_77))) (let ((.def_87 (or .def_86 .def_68))) (let ((.def_88 (not .def_87))) (let ((.def_89 (or .def_88 .def_54))) (let ((.def_90 (<= x9 1))) (let ((.def_91 (<= 0 x9))) (let ((.def_92 (<= x8 1))) (let ((.def_93 (<= 0 x8))) (let ((.def_94 (<= x7 1))) (let ((.def_95 (<= 0 x7))) (let ((.def_96 (<= x6 1))) (let ((.def_97 (<= 0 x6))) (let ((.def_98 (<= x5 1))) (let ((.def_99 (<= 0 x5))) (let ((.def_100 (<= x4 1))) (let ((.def_101 (<= 0 x4))) (let ((.def_102 (<= x3 1))) (let ((.def_103 (<= 0 x3))) (let ((.def_104 (<= x2 1))) (let ((.def_105 (<= 0 x2))) (let ((.def_106 (<= x1 1))) (let ((.def_107 (<= 0 x1))) (let ((.def_108 (<= x0 1))) (let ((.def_109 (<= 0 x0))) (let ((.def_110 (and .def_109 .def_108 .def_107 .def_106 .def_105 .def_104 .def_103 .def_102 .def_101 .def_100 .def_99 .def_98 .def_97 .def_96 .def_95 .def_94 .def_93 .def_92 .def_91 .def_90 .def_89))) .def_110))))))))))))))))))))))))))))))))))))))))))))))))))))))))))))))))))))))))))))))))))))))))))))))))))))))))))))))))
(check-sat)
